NAME : X-n294-k50
COMMENT : "Generated by Uchoa, Pecin, Pessoa, Poggi, Subramanian, and Vidal (2013)"
TYPE : CVRP
DIMENSION : 294
EDGE_WEIGHT_TYPE : EUC_2D
CAPACITY : 285
NODE_COORD_SECTION
1 500 500
2 940 231
3 721 848
4 618 44
5 993 145
6 636 512
7 274 496
8 245 945
9 449 812
10 29 650
11 399 8
12 548 19
13 769 717
14 221 850
15 980 233
16 477 922
17 498 720
18 136 832
19 351 663
20 58 67
21 889 569
22 28 334
23 804 928
24 900 138
25 393 403
26 982 609
27 79 299
28 684 582
29 169 252
30 405 925
31 875 191
32 674 112
33 576 537
34 539 63
35 338 657
36 210 209
37 676 568
38 949 826
39 572 890
40 210 615
41 737 46
42 30 527
43 131 724
44 671 842
45 727 566
46 507 497
47 524 134
48 167 665
49 819 108
50 929 582
51 713 738
52 352 626
53 887 547
54 176 645
55 611 289
56 457 532
57 11 147
58 958 60
59 587 187
60 790 956
61 974 63
62 306 225
63 961 969
64 238 736
65 758 840
66 88 44
67 507 811
68 768 476
69 51 914
70 494 445
71 953 33
72 922 45
73 748 111
74 544 867
75 477 596
76 322 79
77 439 150
78 586 764
79 214 599
80 168 480
81 925 138
82 797 107
83 751 783
84 738 913
85 703 73
86 681 886
87 627 27
88 887 310
89 478 345
90 571 600
91 834 858
92 549 370
93 657 233
94 126 769
95 317 934
96 237 55
97 851 409
98 838 426
99 477 559
100 542 94
101 370 432
102 520 621
103 666 178
104 631 484
105 733 255
106 820 918
107 687 877
108 752 983
109 157 720
110 709 898
111 300 878
112 728 617
113 66 59
114 991 657
115 717 47
116 463 177
117 586 397
118 792 307
119 100 392
120 438 722
121 43 247
122 71 476
123 69 560
124 211 73
125 471 14
126 115 806
127 194 337
128 921 320
129 104 495
130 36 456
131 500 152
132 782 316
133 881 374
134 277 601
135 962 575
136 588 181
137 941 728
138 108 931
139 11 814
140 209 800
141 129 525
142 126 149
143 31 219
144 97 324
145 495 122
146 759 480
147 859 782
148 780 669
149 786 769
150 759 159
151 282 633
152 361 17
153 957 103
154 711 939
155 544 544
156 27 318
157 665 656
158 523 586
159 842 429
160 539 783
161 769 347
162 937 386
163 824 841
164 738 391
165 833 988
166 16 637
167 91 472
168 41 388
169 623 780
170 660 155
171 700 658
172 946 783
173 607 815
174 87 771
175 658 874
176 527 853
177 459 577
178 352 829
179 427 235
180 937 639
181 554 438
182 833 692
183 421 999
184 908 447
185 469 163
186 737 238
187 509 61
188 246 352
189 488 408
190 600 359
191 510 460
192 342 691
193 95 216
194 787 465
195 700 873
196 659 568
197 478 525
198 988 980
199 303 119
200 241 353
201 28 661
202 724 842
203 2 660
204 210 180
205 840 841
206 843 9
207 430 92
208 265 453
209 209 673
210 20 952
211 673 659
212 185 335
213 138 655
214 263 155
215 769 741
216 325 260
217 831 678
218 401 625
219 212 360
220 118 426
221 192 520
222 596 376
223 449 679
224 579 295
225 333 352
226 837 944
227 377 500
228 797 97
229 65 235
230 440 877
231 849 769
232 439 326
233 407 621
234 550 241
235 169 68
236 253 243
237 76 852
238 642 116
239 598 124
240 564 374
241 997 660
242 14 98
243 845 303
244 774 9
245 791 671
246 299 800
247 575 109
248 865 708
249 290 897
250 953 348
251 906 692
252 895 790
253 25 242
254 761 886
255 909 336
256 501 846
257 731 4
258 337 71
259 106 973
260 400 229
261 846 368
262 623 580
263 978 669
264 884 559
265 10 910
266 390 602
267 451 134
268 324 221
269 569 98
270 735 341
271 411 220
272 672 867
273 69 790
274 584 520
275 193 416
276 954 912
277 761 734
278 192 875
279 88 353
280 777 38
281 98 68
282 642 658
283 838 305
284 824 694
285 238 825
286 344 138
287 137 683
288 357 593
289 541 423
290 537 99
291 137 539
292 719 213
293 68 173
294 788 339
PICKUP_AND_DELIVERY_SECTION
1 0 0 1000000000 0 0 0
2 0 0 1000000000 0 0 94
3 0 0 1000000000 0 7 0
4 0 0 1000000000 0 0 83
5 0 0 1000000000 0 31 0
6 0 0 1000000000 0 0 9
7 0 0 1000000000 0 78 0
8 0 0 1000000000 0 0 50
9 0 0 1000000000 0 18 0
10 0 0 1000000000 0 0 10
11 0 0 1000000000 0 11 0
12 0 0 1000000000 0 0 68
13 0 0 1000000000 0 37 0
14 0 0 1000000000 0 0 57
15 0 0 1000000000 0 83 0
16 0 0 1000000000 0 0 38
17 0 0 1000000000 0 94 0
18 0 0 1000000000 0 0 12
19 0 0 1000000000 0 63 0
20 0 0 1000000000 0 0 84
21 0 0 1000000000 0 19 0
22 0 0 1000000000 0 0 68
23 0 0 1000000000 0 32 0
24 0 0 1000000000 0 0 98
25 0 0 1000000000 0 47 0
26 0 0 1000000000 0 0 97
27 0 0 1000000000 0 25 0
28 0 0 1000000000 0 0 98
29 0 0 1000000000 0 30 0
30 0 0 1000000000 0 0 30
31 0 0 1000000000 0 10 0
32 0 0 1000000000 0 0 20
33 0 0 1000000000 0 64 0
34 0 0 1000000000 0 0 56
35 0 0 1000000000 0 73 0
36 0 0 1000000000 0 0 32
37 0 0 1000000000 0 51 0
38 0 0 1000000000 0 0 51
39 0 0 1000000000 0 45 0
40 0 0 1000000000 0 0 72
41 0 0 1000000000 0 81 0
42 0 0 1000000000 0 0 26
43 0 0 1000000000 0 46 0
44 0 0 1000000000 0 0 16
45 0 0 1000000000 0 39 0
46 0 0 1000000000 0 0 9
47 0 0 1000000000 0 52 0
48 0 0 1000000000 0 0 60
49 0 0 1000000000 0 39 0
50 0 0 1000000000 0 0 39
51 0 0 1000000000 0 97 0
52 0 0 1000000000 0 0 40
53 0 0 1000000000 0 79 0
54 0 0 1000000000 0 0 2
55 0 0 1000000000 0 86 0
56 0 0 1000000000 0 0 69
57 0 0 1000000000 0 28 0
58 0 0 1000000000 0 0 73
59 0 0 1000000000 0 46 0
60 0 0 1000000000 0 0 1
61 0 0 1000000000 0 31 0
62 0 0 1000000000 0 0 99
63 0 0 1000000000 0 91 0
64 0 0 1000000000 0 0 19
65 0 0 1000000000 0 41 0
66 0 0 1000000000 0 0 99
67 0 0 1000000000 0 23 0
68 0 0 1000000000 0 0 52
69 0 0 1000000000 0 81 0
70 0 0 1000000000 0 0 89
71 0 0 1000000000 0 48 0
72 0 0 1000000000 0 0 11
73 0 0 1000000000 0 21 0
74 0 0 1000000000 0 0 36
75 0 0 1000000000 0 24 0
76 0 0 1000000000 0 0 56
77 0 0 1000000000 0 93 0
78 0 0 1000000000 0 0 32
79 0 0 1000000000 0 30 0
80 0 0 1000000000 0 0 81
81 0 0 1000000000 0 15 0
82 0 0 1000000000 0 0 98
83 0 0 1000000000 0 61 0
84 0 0 1000000000 0 0 32
85 0 0 1000000000 0 57 0
86 0 0 1000000000 0 0 8
87 0 0 1000000000 0 48 0
88 0 0 1000000000 0 0 45
89 0 0 1000000000 0 19 0
90 0 0 1000000000 0 0 43
91 0 0 1000000000 0 6 0
92 0 0 1000000000 0 0 9
93 0 0 1000000000 0 40 0
94 0 0 1000000000 0 0 66
95 0 0 1000000000 0 1 0
96 0 0 1000000000 0 0 55
97 0 0 1000000000 0 32 0
98 0 0 1000000000 0 0 24
99 0 0 1000000000 0 47 0
100 0 0 1000000000 0 0 72
101 0 0 1000000000 0 36 0
102 0 0 1000000000 0 0 77
103 0 0 1000000000 0 28 0
104 0 0 1000000000 0 0 44
105 0 0 1000000000 0 4 0
106 0 0 1000000000 0 0 42
107 0 0 1000000000 0 38 0
108 0 0 1000000000 0 0 15
109 0 0 1000000000 0 13 0
110 0 0 1000000000 0 0 81
111 0 0 1000000000 0 58 0
112 0 0 1000000000 0 0 77
113 0 0 1000000000 0 88 0
114 0 0 1000000000 0 0 91
115 0 0 1000000000 0 44 0
116 0 0 1000000000 0 0 88
117 0 0 1000000000 0 68 0
118 0 0 1000000000 0 0 40
119 0 0 1000000000 0 57 0
120 0 0 1000000000 0 0 4
121 0 0 1000000000 0 86 0
122 0 0 1000000000 0 0 11
123 0 0 1000000000 0 96 0
124 0 0 1000000000 0 0 51
125 0 0 1000000000 0 75 0
126 0 0 1000000000 0 0 84
127 0 0 1000000000 0 81 0
128 0 0 1000000000 0 0 7
129 0 0 1000000000 0 3 0
130 0 0 1000000000 0 0 37
131 0 0 1000000000 0 38 0
132 0 0 1000000000 0 0 20
133 0 0 1000000000 0 31 0
134 0 0 1000000000 0 0 67
135 0 0 1000000000 0 26 0
136 0 0 1000000000 0 0 49
137 0 0 1000000000 0 96 0
138 0 0 1000000000 0 0 49
139 0 0 1000000000 0 78 0
140 0 0 1000000000 0 0 21
141 0 0 1000000000 0 15 0
142 0 0 1000000000 0 0 8
143 0 0 1000000000 0 75 0
144 0 0 1000000000 0 0 28
145 0 0 1000000000 0 23 0
146 0 0 1000000000 0 0 23
147 0 0 1000000000 0 39 0
148 0 0 1000000000 0 0 36
149 0 0 1000000000 0 28 0
150 0 0 1000000000 0 0 51
151 0 0 1000000000 0 53 0
152 0 0 1000000000 0 0 25
153 0 0 1000000000 0 94 0
154 0 0 1000000000 0 0 81
155 0 0 1000000000 0 8 0
156 0 0 1000000000 0 0 54
157 0 0 1000000000 0 49 0
158 0 0 1000000000 0 0 8
159 0 0 1000000000 0 71 0
160 0 0 1000000000 0 0 52
161 0 0 1000000000 0 19 0
162 0 0 1000000000 0 0 38
163 0 0 1000000000 0 85 0
164 0 0 1000000000 0 0 25
165 0 0 1000000000 0 84 0
166 0 0 1000000000 0 0 12
167 0 0 1000000000 0 82 0
168 0 0 1000000000 0 0 4
169 0 0 1000000000 0 62 0
170 0 0 1000000000 0 0 57
171 0 0 1000000000 0 34 0
172 0 0 1000000000 0 0 4
173 0 0 1000000000 0 15 0
174 0 0 1000000000 0 0 66
175 0 0 1000000000 0 24 0
176 0 0 1000000000 0 0 11
177 0 0 1000000000 0 86 0
178 0 0 1000000000 0 0 96
179 0 0 1000000000 0 36 0
180 0 0 1000000000 0 0 4
181 0 0 1000000000 0 52 0
182 0 0 1000000000 0 0 94
183 0 0 1000000000 0 78 0
184 0 0 1000000000 0 0 85
185 0 0 1000000000 0 8 0
186 0 0 1000000000 0 0 55
187 0 0 1000000000 0 31 0
188 0 0 1000000000 0 0 48
189 0 0 1000000000 0 79 0
190 0 0 1000000000 0 0 89
191 0 0 1000000000 0 13 0
192 0 0 1000000000 0 0 68
193 0 0 1000000000 0 46 0
194 0 0 1000000000 0 0 33
195 0 0 1000000000 0 78 0
196 0 0 1000000000 0 0 14
197 0 0 1000000000 0 8 0
198 0 0 1000000000 0 0 66
199 0 0 1000000000 0 36 0
200 0 0 1000000000 0 0 88
201 0 0 1000000000 0 67 0
202 0 0 1000000000 0 0 72
203 0 0 1000000000 0 98 0
204 0 0 1000000000 0 0 90
205 0 0 1000000000 0 29 0
206 0 0 1000000000 0 0 9
207 0 0 1000000000 0 44 0
208 0 0 1000000000 0 0 5
209 0 0 1000000000 0 43 0
210 0 0 1000000000 0 0 12
211 0 0 1000000000 0 24 0
212 0 0 1000000000 0 0 20
213 0 0 1000000000 0 56 0
214 0 0 1000000000 0 0 23
215 0 0 1000000000 0 73 0
216 0 0 1000000000 0 0 62
217 0 0 1000000000 0 95 0
218 0 0 1000000000 0 0 36
219 0 0 1000000000 0 57 0
220 0 0 1000000000 0 0 59
221 0 0 1000000000 0 80 0
222 0 0 1000000000 0 0 82
223 0 0 1000000000 0 47 0
224 0 0 1000000000 0 0 33
225 0 0 1000000000 0 49 0
226 0 0 1000000000 0 0 23
227 0 0 1000000000 0 10 0
228 0 0 1000000000 0 0 15
229 0 0 1000000000 0 20 0
230 0 0 1000000000 0 0 82
231 0 0 1000000000 0 30 0
232 0 0 1000000000 0 0 78
233 0 0 1000000000 0 77 0
234 0 0 1000000000 0 0 96
235 0 0 1000000000 0 59 0
236 0 0 1000000000 0 0 8
237 0 0 1000000000 0 72 0
238 0 0 1000000000 0 0 90
239 0 0 1000000000 0 76 0
240 0 0 1000000000 0 0 87
241 0 0 1000000000 0 59 0
242 0 0 1000000000 0 0 77
243 0 0 1000000000 0 96 0
244 0 0 1000000000 0 0 13
245 0 0 1000000000 0 55 0
246 0 0 1000000000 0 0 90
247 0 0 1000000000 0 77 0
248 0 0 1000000000 0 0 35
249 0 0 1000000000 0 21 0
250 0 0 1000000000 0 0 28
251 0 0 1000000000 0 76 0
252 0 0 1000000000 0 0 16
253 0 0 1000000000 0 68 0
254 0 0 1000000000 0 0 39
255 0 0 1000000000 0 13 0
256 0 0 1000000000 0 0 27
257 0 0 1000000000 0 94 0
258 0 0 1000000000 0 0 12
259 0 0 1000000000 0 69 0
260 0 0 1000000000 0 0 57
261 0 0 1000000000 0 36 0
262 0 0 1000000000 0 0 13
263 0 0 1000000000 0 5 0
264 0 0 1000000000 0 0 53
265 0 0 1000000000 0 59 0
266 0 0 1000000000 0 0 33
267 0 0 1000000000 0 8 0
268 0 0 1000000000 0 0 86
269 0 0 1000000000 0 59 0
270 0 0 1000000000 0 0 61
271 0 0 1000000000 0 62 0
272 0 0 1000000000 0 0 36
273 0 0 1000000000 0 99 0
274 0 0 1000000000 0 0 91
275 0 0 1000000000 0 41 0
276 0 0 1000000000 0 0 11
277 0 0 1000000000 0 65 0
278 0 0 1000000000 0 0 48
279 0 0 1000000000 0 32 0
280 0 0 1000000000 0 0 81
281 0 0 1000000000 0 50 0
282 0 0 1000000000 0 0 34
283 0 0 1000000000 0 78 0
284 0 0 1000000000 0 0 47
285 0 0 1000000000 0 59 0
286 0 0 1000000000 0 0 13
287 0 0 1000000000 0 52 0
288 0 0 1000000000 0 0 26
289 0 0 1000000000 0 46 0
290 0 0 1000000000 0 0 3
291 0 0 1000000000 0 47 0
292 0 0 1000000000 0 0 67
293 0 0 1000000000 0 70 0
294 0 0 1000000000 0 0 13
